certificates/rado_a7_c62_N12.cnf
c Rad2 upper bound instance: x1 + 7*x2 - x3 = 62, interval [1,12]
p cnf 12 42
1 2 9 0
-1 -2 -9 0
1 9 10 0
-1 -9 -10 0
2 3 9 0
-2 -3 -9 0
2 10 0
-2 -10 0
3 4 9 0
-3 -4 -9 0
3 10 11 0
-3 -10 -11 0
4 5 9 0
-4 -5 -9 0
4 10 12 0
-4 -10 -12 0
5 6 9 0
-5 -6 -9 0
6 7 9 0
-6 -7 -9 0
1 7 8 0
-1 -7 -8 0
7 8 9 0
-7 -8 -9 0
2 8 0
-2 -8 0
8 9 0
-8 -9 0
3 8 9 0
-3 -8 -9 0
9 10 0
-9 -10 0
4 8 10 0
-4 -8 -10 0
9 10 11 0
-9 -10 -11 0
5 8 11 0
-5 -8 -11 0
9 11 12 0
-9 -11 -12 0
6 8 12 0
-6 -8 -12 0
