certificates/rado_a7_c62_N12.drat
-11 -12 0
d -11 -9 -12 0
-10 -12 0
-12 0
10 0
-2 0
-9 0
1 0
3 0
8 0
11 0
-7 0
0
